benchmark/obecase/com1.sl
(set-logic SLIA)
(synth-fun f ((_arg_0 String)) String 
 ( (Start String (ntString)) 
 (ntString String (
	_arg_0 
	"" " "
	(str.++ ntString ntString) 
	(str.replace ntString ntString ntString) 
	(str.at ntString ntInt)
	(int.to.str ntInt)
	(ite ntBool ntString ntString)
	(str.substr ntString ntInt ntInt)
)) 
 (ntInt Int (
	
	4 3 2 1
    (+ ntIntx ntInty)
    (+ ntIntx ntIntx)
    (+ ntInty ntInty)
	(- ntInt ntInt)
	(str.len ntString)
	(str.to.int ntString)
	(ite ntBool ntInt ntInt)
	(str.indexof ntString ntString ntInt)
)) 
 (ntIntx Int (
	
	4 3 
    (+ ntIntx ntInty)
	(+ ntIntx ntIntx)
    (+ ntInty ntInty)
	(- ntInt ntInt)
	(str.len ntString)
	(str.to.int ntString)
	(ite ntBool ntInt ntInt)
	(str.indexof ntString ntString ntInt)
)) 
 (ntInty Int (
	
	2 1
    (+ ntIntx ntInty)
	(+ ntIntx ntIntx)
    (+ ntInty ntInty)
	(- ntInt ntInt)
	(str.len ntString)
	(str.to.int ntString)
	(ite ntBool ntInt ntInt)
	(str.indexof ntString ntString ntInt)
)) 
 (ntBool Bool (
	
	true false
	(= ntInt ntInt)
	(str.prefixof ntString ntString)
	(str.suffixof ntString ntString)
	(str.contains ntString ntString)
)) ))
(constraint (= (f "JoDepolkioyuhjhjd") "o"))
(constraint (= (f "MaraiNkhuNjkdga") "N"))
(constraint (= (f "NitTinghdSShk") "S"))
(check-synth)