benchmark/obecase/com1.out
3 {f:str.at(Param0,+(4,+(4,1)))}
0.1414640000
